(set-info :smt-lib-version 2.6)
(set-logic QF_S)
(set-info :source |
Generated by: Joel Day, Thorsten Ehlers, Mitja Kulczynski, Federico Mora, Florin Manea, Dirk Nowotka, Danny Poulsen, Zhengyang Lu
Application: Test WOORPJE
Target solver: WOORPJE
Publications: Day, J. D., Ehlers, T., Kulczynski, M., Manea, F., Nowotka, D., & Poulsen, D. B. (2019). On solving word equations using SAT. In RP 2019
Description: Transoformed and expanded from Track02
|)
(set-info :license "https://creativecommons.org/licenses/by/4.0/")
(set-info :category "random")
(set-info :status unknown)

(declare-fun S () String)
(declare-fun J () String)
(declare-fun I () String)
(declare-fun K () String)
(declare-fun H () String)
(declare-fun V () String)
(declare-fun G () String)
(declare-fun L () String)
(declare-fun O () String)
(declare-fun M () String)
(declare-fun P () String)
(declare-fun Q () String)
(assert (= (str.++  "aaaaaa" G I "aaaaaaaa" G I "aba" J K M K "b" M O O P "b" P S "b" V)  (str.++  "a" H G M L M "a" J M L M "a" J "b" O O M O O O M O "b" Q P Q P "baabaa") ))
(check-sat)

(exit)
